Solver command line: ['C:\\Program Files\\IBM\\ILOG\\CPLEX_Studio2211\\cplex\\bin\\x64_win64\\cplex.exe']


Welcome to IBM(R) ILOG(R) CPLEX(R) Interactive Optimizer 22.1.1.0
  with Simplex, Mixed Integer & Barrier Optimizers
5725-A06 5725-A29 5724-Y48 5724-Y49 5724-Y54 5724-Y55 5655-Y21
Copyright IBM Corp. 1988, 2022.  All Rights Reserved.

Type 'help' for a list of available commands.
Type 'help' followed by a command name for more
information on commands.

CPLEX> Logfile 'cplex.log' closed.
Logfile 'C:\Users\wangy\Documents\GitHub\re_optimization\result_site_specific\tmpzutoxzhi.cplex.log' open.
CPLEX> Problem 'C:\Users\wangy\Documents\GitHub\re_optimization\result_site_specific\tmp71z3b4ef.pyomo.lp' read.
Read time = 0.31 sec. (9.13 ticks)
CPLEX> Problem name         : C:\Users\wangy\Documents\GitHub\re_optimization\result_site_specific\tmp71z3b4ef.pyomo.lp
Objective sense      : Minimize
Variables            :   65769  [Nneg: 35068,  Free: 8792,  Binary: 9,
                                 Other: 21900]
Objective nonzeros   :      17
Linear constraints   :   87665  [Less: 46741,  Greater: 5,  Equal: 40919]
  Nonzeros           :  225109
  RHS nonzeros       :    3508

Variables            : Min LB: 0.000000         Max UB: 1.000000       
Objective nonzeros   : Min   : 1.000000         Max   : 1.000000       
Linear constraints   :
  Nonzeros           : Min   : 1.915071e-05     Max   : 100000.0       
  RHS nonzeros       : Min   : 0.2400000        Max   : 100000.0       
CPLEX> Version identifier: 22.1.1.0 | 2022-11-27 | 9160aff4d
Tried aggregator 3 times.
MIP Presolve eliminated 53675 rows and 33233 columns.
Aggregator did 10495 substitutions.
Reduced MIP has 23495 rows, 22041 columns, and 70343 nonzeros.
Reduced MIP has 5 binaries, 0 generals, 0 SOSs, and 0 indicators.
Presolve time = 0.20 sec. (223.66 ticks)
Found incumbent of value 506102.177713 after 0.28 sec. (313.13 ticks)
Probing time = 0.00 sec. (1.23 ticks)
Tried aggregator 1 time.
Detecting symmetries...
Reduced MIP has 23495 rows, 22041 columns, and 70343 nonzeros.
Reduced MIP has 5 binaries, 0 generals, 0 SOSs, and 0 indicators.
Presolve time = 0.05 sec. (43.19 ticks)
Probing time = 0.00 sec. (1.14 ticks)
MIP emphasis: balance optimality and feasibility.
MIP search method: dynamic search.
Parallel mode: deterministic, using up to 16 threads.
Root relaxation solution time = 1.19 sec. (857.74 ticks)

        Nodes                                         Cuts/
   Node  Left     Objective  IInf  Best Integer    Best Bound    ItCnt     Gap

*     0+    0                       506102.1777   -38036.1038           107.52%
      0     0    14828.3672     1   506102.1777    14828.3672       66   97.07%
*     0+    0                        16432.6610    14828.3672             9.76%
      0     0        cutoff          16432.6610    16432.6610      440    0.00%
Elapsed time = 1.84 sec. (1620.63 ticks, tree = 0.01 MB, solutions = 2)

Mixed integer rounding cuts applied:  334

Root node processing (before b&c):
  Real time             =    1.86 sec. (1623.35 ticks)
Parallel b&c, 16 threads:
  Real time             =    0.00 sec. (0.00 ticks)
  Sync time (average)   =    0.00 sec.
  Wait time (average)   =    0.00 sec.
                          ------------
Total (root+branch&cut) =    1.86 sec. (1623.35 ticks)

Solution pool: 2 solutions saved.

MIP - Integer optimal solution:  Objective =  1.6432660965e+04
Solution time =    1.86 sec.  Iterations = 440  Nodes = 0
Deterministic time = 1623.54 ticks  (873.34 ticks/sec)

CPLEX> Incumbent solution written to file 'C:\Users\wangy\Documents\GitHub\re_optimization\result_site_specific\tmp4irm_8yo.cplex.sol'.
CPLEX> 
